NAME : netgen22-5-15
COMMENT : Generated using the function generateClusteredNetwork from the R-package netgen (Bossek,2015) - Number of clusters: 5
TYPE : TSP
DIMENSION : 22
EDGE_WEIGHT_TYPE : EUC_2D
NODE_COORD_SECTION
1 1.3749741083 45.8871412491
2 7.4380791865 48.0456418218
3 6.3837869911 38.3297210814
4 5.8699845246 47.8738753053
5 66.9297249532 42.0616305012
6 90.9015139109 46.8975515763
7 85.8678411993 34.8209183102
8 97.8471177844 42.2644981269
9 59.7385207539 67.2409321703
10 58.3859055767 71.9873460825
11 53.7731998204 71.5991444572
12 47.4961870278 72.9416427083
13 57.734226652 74.6150585011
14 58.3207447326 75.0672433066
15 37.5599838395 78.1949389097
16 26.2172312215 84.1777241533
17 30.1119192933 84.7778103427
18 38.6229640338 83.2648940674
19 62.4877130037 13.5566018148
20 59.2275718868 12.4058511547
21 55.4102381978 8.3240403505
22 63.150184492 5.4091545103
EOF
